* ENCODING=ISO-8859-1
NAME          CPLEX
ROWS
 N  obj1    
 G  c1      
 G  c2      
 G  c3      
 G  c4      
 G  c5      
 G  c6      
 G  c7      
 G  c8      
 G  c9      
 G  c10     
 G  c11     
 G  c12     
 G  c13     
 G  c14     
 G  c15     
 G  c16     
 G  c17     
 G  c18     
 G  c19     
 G  c20     
 G  c21     
 G  c22     
 G  c23     
 G  c24     
 G  c25     
 G  c26     
 G  c27     
 G  c28     
 G  c29     
 G  c30     
COLUMNS
    MARK0000  'MARKER'                 'INTORG'
    x1        obj1                            1
    x1        c13                           123
    x1        c19                           614
    x1        c26                           268
    x2        obj1                            1
    x2        c3                            548
    x2        c9                            544
    x2        c20                           232
    x2        c30                           562
    x3        obj1                            1
    x3        c14                           975
    x3        c24                           532
    x3        c28                           412
    x4        obj1                            1
    x4        c6                            301
    x4        c7                            666
    x4        c15                           164
    x4        c27                           947
    x4        c28                           930
    x5        obj1                            1
    x5        c23                           573
    x5        c30                           604
    x6        obj1                            1
    x6        c5                            661
    x6        c6                            762
    x6        c15                           251
    x6        c26                           317
    x7        obj1                            1
    x7        c14                           144
    x7        c15                           751
    x7        c19                           991
    x8        obj1                            1
    x8        c16                           193
    x8        c26                           461
    x9        obj1                            1
    x9        c11                           411
    x9        c13                           682
    x9        c24                           355
    x9        c27                           104
    x10       obj1                            1
    x10       c9                            415
    x10       c12                           332
    x10       c29                           149
    x11       obj1                            1
    x11       c9                            256
    x11       c15                           263
    x11       c17                           194
    x11       c19                           461
    x11       c21                           479
    x12       obj1                            1
    x12       c11                           165
    x12       c29                           711
    x13       obj1                            1
    x13       c16                           920
    x13       c17                           417
    x13       c26                           130
    x13       c27                           641
    x14       obj1                            1
    x14       c13                           549
    x14       c25                           902
    x14       c26                           212
    x15       obj1                            1
    x15       c10                           564
    x16       obj1                            1
    x16       c7                            556
    x16       c26                           700
    x17       obj1                            1
    x17       c6                            868
    x18       obj1                            1
    x18       c8                            165
    x18       c14                           921
    x18       c16                           376
    x18       c17                           108
    x18       c19                           287
    x18       c24                           250
    x19       obj1                            1
    x19       c9                            983
    x19       c29                           414
    x20       obj1                            1
    x20       c25                           163
    x21       obj1                            1
    x21       c9                            764
    x21       c15                           900
    x22       obj1                            1
    x22       c1                            149
    x22       c21                           606
    x22       c23                           464
    x23       obj1                            1
    x23       c3                            247
    x23       c4                            332
    x24       obj1                            1
    x24       c19                           545
    x25       obj1                            1
    x25       c6                            695
    x25       c11                           619
    x25       c22                           812
    x25       c24                           466
    x25       c26                           584
    x25       c30                           139
    x26       obj1                            1
    x26       c4                            595
    x26       c30                           511
    x27       obj1                            1
    x27       c14                           420
    x27       c15                           393
    x27       c23                           815
    x27       c26                           243
    x27       c29                           879
    x27       c30                           929
    x28       obj1                            1
    x28       c2                            393
    x28       c29                           243
    x29       obj1                            1
    x29       c9                            452
    x29       c30                           150
    x30       obj1                            1
    x30       c3                            580
    x30       c5                            548
    x30       c6                            814
    x30       c10                           581
    x30       c16                           178
    x30       c27                           155
    x31       obj1                            1
    x31       c20                           109
    x31       c24                           964
    x31       c25                           693
    x31       c26                           756
    x32       obj1                            1
    x32       c8                            478
    x32       c12                           273
    x32       c16                           204
    x33       obj1                            1
    x33       c22                           916
    x34       obj1                            1
    x34       c8                            359
    x34       c23                           720
    x35       obj1                            1
    x35       c8                            236
    x35       c18                           647
    x35       c24                           522
    x36       obj1                            1
    x37       obj1                            1
    x37       c1                            278
    x37       c8                            752
    x37       c11                           861
    x37       c14                           263
    x37       c22                           605
    x38       obj1                            1
    x38       c25                           424
    x39       obj1                            1
    x39       c19                           768
    x40       obj1                            1
    x40       c3                            981
    x40       c5                            854
    x40       c18                           592
    x40       c22                           779
    x41       obj1                            1
    x41       c13                           197
    x41       c17                           594
    x41       c18                           304
    x42       obj1                            1
    x42       c7                            974
    x42       c8                            422
    x43       obj1                            1
    x43       c11                           217
    x43       c12                           331
    x43       c13                           804
    x43       c15                           109
    x43       c18                           349
    x43       c29                           595
    x44       obj1                            1
    x44       c3                            478
    x45       obj1                            1
    x45       c18                           920
    x46       obj1                            1
    x47       obj1                            1
    x47       c4                            277
    x47       c5                            613
    x47       c11                           322
    x47       c12                           483
    x47       c24                           116
    x48       obj1                            1
    x48       c13                           641
    x48       c28                           197
    x49       obj1                            1
    x49       c5                            964
    x49       c25                           697
    x50       obj1                            1
    x50       c5                            363
    x50       c11                           322
    x50       c12                           410
    x50       c14                           538
    x50       c15                           526
    x50       c18                           548
    x51       obj1                            1
    x51       c8                            193
    x51       c17                           257
    x51       c19                           152
    x51       c24                           935
    x51       c29                           374
    x52       obj1                            1
    x52       c4                            235
    x52       c5                            503
    x52       c9                            351
    x53       obj1                            1
    x53       c1                            682
    x53       c9                            206
    x53       c20                           232
    x53       c21                           168
    x53       c24                           478
    x53       c25                           117
    x53       c29                           397
    x54       obj1                            1
    x55       obj1                            1
    x55       c2                            465
    x55       c7                            326
    x55       c11                           568
    x55       c23                           883
    x56       obj1                            1
    x56       c6                            363
    x56       c18                           679
    x56       c20                           666
    x56       c23                           326
    x57       obj1                            1
    x57       c9                            463
    x57       c10                           381
    x57       c16                           156
    x57       c19                           931
    x57       c29                           977
    x58       obj1                            1
    x58       c2                            536
    x58       c14                           652
    x59       obj1                            1
    x59       c1                            716
    x59       c10                           437
    x59       c17                           829
    x59       c23                           677
    x59       c30                           319
    x60       obj1                            1
    x60       c3                            105
    x60       c5                            718
    x60       c15                           304
    x60       c27                           900
    MARK0001  'MARKER'                 'INTEND'
RHS
    rhs       c1                            913
    rhs       c2                            697
    rhs       c3                           1470
    rhs       c4                            720
    rhs       c5                           2612
    rhs       c6                           1902
    rhs       c7                           1261
    rhs       c8                           1303
    rhs       c9                           2217
    rhs       c10                           982
    rhs       c11                          1743
    rhs       c12                           915
    rhs       c13                          1498
    rhs       c14                          1957
    rhs       c15                          1831
    rhs       c16                          1014
    rhs       c17                          1200
    rhs       c18                          2020
    rhs       c19                          2375
    rhs       c20                           620
    rhs       c21                           627
    rhs       c22                          1556
    rhs       c23                          2229
    rhs       c24                          2309
    rhs       c25                          1498
    rhs       c26                          1836
    rhs       c27                          1374
    rhs       c28                           770
    rhs       c29                          2370
    rhs       c30                          1607
BOUNDS
 LI bnd       x1        0
 LI bnd       x2        0
 LI bnd       x3        0
 LI bnd       x4        0
 LI bnd       x5        0
 LI bnd       x6        0
 LI bnd       x7        0
 LI bnd       x8        0
 LI bnd       x9        0
 LI bnd       x10       0
 LI bnd       x11       0
 LI bnd       x12       0
 LI bnd       x13       0
 LI bnd       x14       0
 LI bnd       x15       0
 LI bnd       x16       0
 LI bnd       x17       0
 LI bnd       x18       0
 LI bnd       x19       0
 LI bnd       x20       0
 LI bnd       x21       0
 LI bnd       x22       0
 LI bnd       x23       0
 LI bnd       x24       0
 LI bnd       x25       0
 LI bnd       x26       0
 LI bnd       x27       0
 LI bnd       x28       0
 LI bnd       x29       0
 LI bnd       x30       0
 LI bnd       x31       0
 LI bnd       x32       0
 LI bnd       x33       0
 LI bnd       x34       0
 LI bnd       x35       0
 LI bnd       x36       0
 LI bnd       x37       0
 LI bnd       x38       0
 LI bnd       x39       0
 LI bnd       x40       0
 LI bnd       x41       0
 LI bnd       x42       0
 LI bnd       x43       0
 LI bnd       x44       0
 LI bnd       x45       0
 LI bnd       x46       0
 LI bnd       x47       0
 LI bnd       x48       0
 LI bnd       x49       0
 LI bnd       x50       0
 LI bnd       x51       0
 LI bnd       x52       0
 LI bnd       x53       0
 LI bnd       x54       0
 LI bnd       x55       0
 LI bnd       x56       0
 LI bnd       x57       0
 LI bnd       x58       0
 LI bnd       x59       0
 LI bnd       x60       0
ENDATA
